
0 26 30 23 17 36 16 47 42 34
26 0 31 15 16 27 17 37 22 29
30 31 0 30 11 31 28 37 28 22
23 15 30 0 40 12 55 62 36 14
17 16 11 40 0 22 60 38 29 61
36 27 31 12 22 0 31 30 51 19
16 17 28 55 60 31 0 60 51 38
47 37 37 62 38 30 60 0 40 30
42 22 28 36 29 51 51 40 0 36
34 29 22 14 61 19 38 30 36 0
